1 3 100 71562.58
1 3 200 70722.96
1 3 300 71767.63
2 3 100 78105.95
2 3 200 78038.92
2 3 300 77432.90
3 3 100 77933.44
3 3 200 78685.64
3 3 300 77024.78
4 3 100 73913.76
4 3 200 75393.29
4 3 300 74497.68
5 3 100 73544.97
5 3 200 73583.77
5 3 300 73769.34
